experiments/sat_smt/run/sat-l/results/william.res
solved=true
solvingTime=3388.4775390625
nActions=49