experiments/sat_smt/run/sat-l/results/william.out
Timesteps: 1
s UNSATISFIABLE
real 0.07
user 0.00
sys 0.00
Timesteps: 2
s UNSATISFIABLE
real 0.13
user 0.01
sys 0.00
Timesteps: 3
s UNSATISFIABLE
real 0.11
user 0.03
sys 0.00
Timesteps: 4
s UNSATISFIABLE
real 0.15
user 0.04
sys 0.00
Timesteps: 5
s UNSATISFIABLE
real 0.12
user 0.07
sys 0.00
Timesteps: 6
s UNSATISFIABLE
real 0.16
user 0.11
sys 0.00
Timesteps: 7
s UNSATISFIABLE
real 0.22
user 0.16
sys 0.00
Timesteps: 8
s UNSATISFIABLE
real 0.34
user 0.23
sys 0.00
Timesteps: 9
s UNSATISFIABLE
real 0.75
user 0.66
sys 0.01
Timesteps: 10
s UNSATISFIABLE
real 1.35
user 1.26
sys 0.00
Timesteps: 11
s UNSATISFIABLE
real 1.84
user 1.73
sys 0.01
Timesteps: 12
s UNSATISFIABLE
real 2.76
user 2.64
sys 0.01
Timesteps: 13
s UNSATISFIABLE
real 4.58
user 4.45
sys 0.01
Timesteps: 14
s UNSATISFIABLE
real 5.57
user 5.42
sys 0.01
Timesteps: 15
s UNSATISFIABLE
real 5.85
user 5.70
sys 0.01
Timesteps: 16
s UNSATISFIABLE
real 7.01
user 6.82
sys 0.02
Timesteps: 17
s UNSATISFIABLE
real 6.85
user 6.63
sys 0.02
Timesteps: 18
s UNSATISFIABLE
real 8.57
user 8.36
sys 0.02
Timesteps: 19
s UNSATISFIABLE
real 9.38
user 9.16
sys 0.03
Timesteps: 20
s UNSATISFIABLE
real 7.98
user 7.75
sys 0.03
Timesteps: 21
s UNSATISFIABLE
real 11.13
user 10.87
sys 0.04
Timesteps: 22
s UNSATISFIABLE
real 8.64
user 8.38
sys 0.04
Timesteps: 23
s UNSATISFIABLE
real 9.59
user 9.32
sys 0.04
Timesteps: 24
s UNSATISFIABLE
real 9.98
user 9.71
sys 0.03
Timesteps: 25
s UNSATISFIABLE
real 11.80
user 11.37
sys 0.04
Timesteps: 26
s UNSATISFIABLE
real 11.87
user 11.58
sys 0.04
Timesteps: 27
s UNSATISFIABLE
real 15.29
user 14.94
sys 0.05
Timesteps: 28
s UNSATISFIABLE
real 15.22
user 14.89
sys 0.04
Timesteps: 29
s UNSATISFIABLE
real 17.54
user 17.17
sys 0.06
Timesteps: 30
s UNSATISFIABLE
real 27.81
user 27.39
sys 0.07
Timesteps: 31
s UNSATISFIABLE
real 29.09
user 28.67
sys 0.06
Timesteps: 32
s UNSATISFIABLE
real 30.87
user 30.43
sys 0.07
Timesteps: 33
s UNSATISFIABLE
real 34.61
user 34.15
sys 0.07
Timesteps: 34
s UNSATISFIABLE
real 82.84
user 81.61
sys 0.15
Timesteps: 35
s UNSATISFIABLE
real 88.53
user 87.23
sys 0.14
Timesteps: 36
s UNSATISFIABLE
real 100.70
user 99.35
sys 0.16
Timesteps: 37
s UNSATISFIABLE
real 108.47
user 107.02
sys 0.20
Timesteps: 38
s UNSATISFIABLE
real 81.01
user 80.27
sys 0.14
Timesteps: 39
s UNSATISFIABLE
real 137.38
user 135.74
sys 0.21
Timesteps: 40
s UNSATISFIABLE
real 140.00
user 138.30
sys 0.21
Timesteps: 41
s UNSATISFIABLE
real 259.85
user 257.55
sys 0.30
Timesteps: 42
s UNSATISFIABLE
real 210.38
user 208.24
sys 0.29
Timesteps: 43
s UNSATISFIABLE
real 336.45
user 333.67
sys 0.37
Timesteps: 44
s UNSATISFIABLE
real 274.79
user 272.30
sys 0.34
Timesteps: 45
s UNSATISFIABLE
real 221.72
user 219.53
sys 0.32
Timesteps: 46
s UNSATISFIABLE
real 146.62
user 145.52
sys 0.24
Timesteps: 47
s UNSATISFIABLE
real 326.08
user 324.18
sys 0.40
Timesteps: 48
s UNSATISFIABLE
real 203.67
user 202.32
sys 0.26
Timesteps: 49
s SATISFIABLE
real 390.03
user 387.90
sys 0.44
